c ren 1 -> 1
c ren 2 -> 2
c ren 3 -> 3
c ren 4 -> 4
c ren 5 -> 5
c ren 6 -> 6
c ren 7 -> 7
c ren 8 -> 8
c ren 9 -> 9
c ren 10 -> 10
c ren 18 -> 11
c ren 19 -> 12
c ren 20 -> 13
c ren 21 -> 14
c ren 22 -> 15
c ren 23 -> 16
c ren 24 -> 17
c ren 25 -> 18
c ren 31 -> 19
c ren 41 -> 20
c ren 47 -> 21
c ren 48 -> 22
c ren 51 -> 23
p cnf 23 47
a 1 2 3 4 5 6 7 8 9 10 11 12 13 14 0
d 15 3 11 0
d 16 10 13 0
d 17 7 12 0
d 18 9 14 0
e 19 20 21 22 23 0
-2 8 -19 -20 -22 -23 0
1 2 -11 19 0
-1 -15 -19 -20 -22 -23 0
-2 -15 -19 -20 -22 -23 0
1 2 -3 15 -19 -20 -22 -23 0
1 2 3 4 5 6 -12 20 0
-3 -21 0
-5 12 20 0
1 2 3 4 5 6 7 8 21 0
-4 -17 -19 -20 -22 -23 0
1 2 3 4 5 6 7 -8 -19 -20 -22 -23 0
-5 8 -19 -20 -22 -23 0
-2 11 19 0
-6 -21 0
-6 -17 -19 -20 -22 -23 0
-4 -21 0
-4 8 -19 -20 -22 -23 0
-5 -17 -19 -20 -22 -23 0
-3 12 20 0
-8 -21 0
-6 8 -19 -20 -22 -23 0
-7 8 -19 -20 -22 -23 0
-14 -21 22 0
14 21 22 0
-3 -17 -19 -20 -22 -23 0
-16 -19 -20 21 -22 -23 0
-3 8 -19 -20 -22 -23 0
-13 -18 23 0
13 18 23 0
-2 12 20 0
9 10 18 -19 -20 -21 -22 -23 0
-2 -21 0
-2 -17 -19 -20 -22 -23 0
-1 11 19 0
-1 12 20 0
-6 12 20 0
-5 -21 0
-1 -21 0
-4 12 20 0
-1 8 -19 -20 -22 -23 0
-1 -17 -19 -20 -22 -23 0
1 2 3 4 5 6 -7 17 -19 -20 -22 -23 0
-9 10 -18 -19 -20 -22 -23 0
-7 -21 0
-9 -16 -19 -20 -22 -23 0
9 -10 16 -19 -20 -21 -22 -23 0
10 -18 -19 -20 21 -22 -23 0
